Version identifier: 22.1.1.0 | 2022-11-28 | 9160aff4d
CPXPARAM_Threads                                 1
CPXPARAM_MIP_Strategy_VariableSelect             3
CPXPARAM_TimeLimit                               599.99910554799999
Found incumbent of value 0.000000 after 0.00 sec. (0.24 ticks)

Root node processing (before b&c):
  Real time             =    0.00 sec. (0.27 ticks)
Sequential b&c:
  Real time             =    0.00 sec. (0.00 ticks)
                          ------------
Total (root+branch&cut) =    0.00 sec. (0.27 ticks)
Version identifier: 22.1.1.0 | 2022-11-28 | 9160aff4d
CPXPARAM_Threads                                 1
CPXPARAM_MIP_Strategy_VariableSelect             3
CPXPARAM_TimeLimit                               599.99169052499997
Found incumbent of value 0.000000 after 0.00 sec. (0.35 ticks)

Root node processing (before b&c):
  Real time             =    0.00 sec. (0.40 ticks)
Sequential b&c:
  Real time             =    0.00 sec. (0.00 ticks)
                          ------------
Total (root+branch&cut) =    0.00 sec. (0.40 ticks)
Version identifier: 22.1.1.0 | 2022-11-28 | 9160aff4d
CPXPARAM_Threads                                 1
CPXPARAM_MIP_Strategy_VariableSelect             3
CPXPARAM_TimeLimit                               599.98224284100002
Found incumbent of value 0.000000 after 0.00 sec. (0.41 ticks)

Root node processing (before b&c):
  Real time             =    0.00 sec. (0.47 ticks)
Sequential b&c:
  Real time             =    0.00 sec. (0.00 ticks)
                          ------------
Total (root+branch&cut) =    0.00 sec. (0.47 ticks)
Version identifier: 22.1.1.0 | 2022-11-28 | 9160aff4d
CPXPARAM_Threads                                 1
CPXPARAM_MIP_Strategy_VariableSelect             3
CPXPARAM_TimeLimit                               599.97160699899996
Found incumbent of value 0.000000 after 0.00 sec. (0.44 ticks)

Root node processing (before b&c):
  Real time             =    0.00 sec. (0.50 ticks)
Sequential b&c:
  Real time             =    0.00 sec. (0.00 ticks)
                          ------------
Total (root+branch&cut) =    0.00 sec. (0.50 ticks)
Version identifier: 22.1.1.0 | 2022-11-28 | 9160aff4d
CPXPARAM_Threads                                 1
CPXPARAM_MIP_Strategy_VariableSelect             3
CPXPARAM_TimeLimit                               599.96031793600002
Tried aggregator 1 time.
MIP Presolve eliminated 18 rows and 897 columns.
Reduced MIP has 1788 rows, 2691 columns, and 19889 nonzeros.
Reduced MIP has 2691 binaries, 0 generals, 0 SOSs, and 0 indicators.
Presolve time = 0.01 sec. (10.82 ticks)
Found incumbent of value 0.000000 after 0.03 sec. (34.69 ticks)

Root node processing (before b&c):
  Real time             =    0.03 sec. (34.82 ticks)
Sequential b&c:
  Real time             =    0.00 sec. (0.00 ticks)
                          ------------
Total (root+branch&cut) =    0.03 sec. (34.82 ticks)
Version identifier: 22.1.1.0 | 2022-11-28 | 9160aff4d
CPXPARAM_Threads                                 1
CPXPARAM_MIP_Strategy_VariableSelect             3
CPXPARAM_TimeLimit                               599.91592175400001
Tried aggregator 1 time.
MIP Presolve eliminated 18 rows and 912 columns.
Reduced MIP has 1818 rows, 2736 columns, and 20224 nonzeros.
Reduced MIP has 2736 binaries, 0 generals, 0 SOSs, and 0 indicators.
Presolve time = 0.01 sec. (10.99 ticks)
Probing time = 0.00 sec. (2.67 ticks)
Tried aggregator 1 time.
Detecting symmetries...
Reduced MIP has 1818 rows, 2736 columns, and 20224 nonzeros.
Reduced MIP has 2736 binaries, 0 generals, 0 SOSs, and 0 indicators.
Presolve time = 0.01 sec. (12.40 ticks)
Probing time = 0.00 sec. (2.67 ticks)
Clique table members: 1206.
MIP emphasis: balance optimality and feasibility.
MIP search method: dynamic search.
Parallel mode: none, using 1 thread.
Root relaxation solution time = 0.01 sec. (16.06 ticks)

        Nodes                                         Cuts/
   Node  Left     Objective  IInf  Best Integer    Best Bound    ItCnt     Gap

      0     0        0.0000    34                      0.0000      394         
*     0+    0                            0.0000        0.0000             0.00%
      0     0        cutoff              0.0000        0.0000      394    0.00%
Elapsed time = 0.08 sec. (120.38 ticks, tree = 0.01 MB, solutions = 1)

Root node processing (before b&c):
  Real time             =    0.08 sec. (120.49 ticks)
Sequential b&c:
  Real time             =    0.00 sec. (0.00 ticks)
                          ------------
Total (root+branch&cut) =    0.08 sec. (120.49 ticks)
Version identifier: 22.1.1.0 | 2022-11-28 | 9160aff4d
CPXPARAM_Threads                                 1
CPXPARAM_MIP_Strategy_VariableSelect             3
CPXPARAM_TimeLimit                               599.82143689500003
Tried aggregator 1 time.
MIP Presolve eliminated 18 rows and 918 columns.
Reduced MIP has 1830 rows, 2754 columns, and 20358 nonzeros.
Reduced MIP has 2754 binaries, 0 generals, 0 SOSs, and 0 indicators.
Presolve time = 0.01 sec. (11.07 ticks)
Probing time = 0.00 sec. (2.68 ticks)
Tried aggregator 1 time.
Detecting symmetries...
Reduced MIP has 1830 rows, 2754 columns, and 20358 nonzeros.
Reduced MIP has 2754 binaries, 0 generals, 0 SOSs, and 0 indicators.
Presolve time = 0.01 sec. (12.48 ticks)
Probing time = 0.00 sec. (2.68 ticks)
Clique table members: 1214.
MIP emphasis: balance optimality and feasibility.
MIP search method: dynamic search.
Parallel mode: none, using 1 thread.
Root relaxation solution time = 0.01 sec. (17.94 ticks)

        Nodes                                         Cuts/
   Node  Left     Objective  IInf  Best Integer    Best Bound    ItCnt     Gap

      0     0        0.0000    71                      0.0000      444         
*     0+    0                            0.0000        0.0000             0.00%
      0     0        cutoff              0.0000        0.0000      444    0.00%
Elapsed time = 0.09 sec. (124.71 ticks, tree = 0.01 MB, solutions = 1)

Root node processing (before b&c):
  Real time             =    0.09 sec. (124.82 ticks)
Sequential b&c:
  Real time             =    0.00 sec. (0.00 ticks)
                          ------------
Total (root+branch&cut) =    0.09 sec. (124.82 ticks)
Version identifier: 22.1.1.0 | 2022-11-28 | 9160aff4d
CPXPARAM_Threads                                 1
CPXPARAM_MIP_Strategy_VariableSelect             3
CPXPARAM_TimeLimit                               599.72158203499998
Tried aggregator 1 time.
MIP Presolve eliminated 18 rows and 921 columns.
Reduced MIP has 1836 rows, 2763 columns, and 20425 nonzeros.
Reduced MIP has 2763 binaries, 0 generals, 0 SOSs, and 0 indicators.
Presolve time = 0.01 sec. (11.10 ticks)
Probing time = 0.00 sec. (2.68 ticks)
Tried aggregator 1 time.
Detecting symmetries...
Reduced MIP has 1836 rows, 2763 columns, and 20425 nonzeros.
Reduced MIP has 2763 binaries, 0 generals, 0 SOSs, and 0 indicators.
Presolve time = 0.01 sec. (12.51 ticks)
Probing time = 0.00 sec. (2.68 ticks)
Clique table members: 1218.
MIP emphasis: balance optimality and feasibility.
MIP search method: dynamic search.
Parallel mode: none, using 1 thread.
Root relaxation solution time = 0.01 sec. (19.42 ticks)

        Nodes                                         Cuts/
   Node  Left     Objective  IInf  Best Integer    Best Bound    ItCnt     Gap

      0     0        0.0000   101                      0.0000      473         
*     0+    0                            0.0000        0.0000             0.00%
      0     0        cutoff              0.0000        0.0000      473    0.00%
Elapsed time = 0.12 sec. (151.32 ticks, tree = 0.01 MB, solutions = 1)

Root node processing (before b&c):
  Real time             =    0.12 sec. (151.43 ticks)
Sequential b&c:
  Real time             =    0.00 sec. (0.00 ticks)
                          ------------
Total (root+branch&cut) =    0.12 sec. (151.43 ticks)
Version identifier: 22.1.1.0 | 2022-11-28 | 9160aff4d
CPXPARAM_Threads                                 1
CPXPARAM_MIP_Strategy_VariableSelect             3
CPXPARAM_TimeLimit                               599.59156076900001
Tried aggregator 1 time.
MIP Presolve eliminated 18 rows and 924 columns.
Reduced MIP has 1842 rows, 2772 columns, and 20492 nonzeros.
Reduced MIP has 2772 binaries, 0 generals, 0 SOSs, and 0 indicators.
Presolve time = 0.01 sec. (11.14 ticks)
Probing time = 0.00 sec. (2.68 ticks)
Tried aggregator 1 time.
Detecting symmetries...
Reduced MIP has 1842 rows, 2772 columns, and 20492 nonzeros.
Reduced MIP has 2772 binaries, 0 generals, 0 SOSs, and 0 indicators.
Presolve time = 0.01 sec. (12.56 ticks)
Probing time = 0.00 sec. (2.68 ticks)
Clique table members: 1222.
MIP emphasis: balance optimality and feasibility.
MIP search method: dynamic search.
Parallel mode: none, using 1 thread.
Root relaxation solution time = 0.01 sec. (17.51 ticks)

        Nodes                                         Cuts/
   Node  Left     Objective  IInf  Best Integer    Best Bound    ItCnt     Gap

      0     0        0.0000    32                      0.0000      452         
*     0+    0                            0.0000        0.0000             0.00%
      0     0        cutoff              0.0000        0.0000      452    0.00%
Elapsed time = 0.08 sec. (112.07 ticks, tree = 0.01 MB, solutions = 1)

Root node processing (before b&c):
  Real time             =    0.08 sec. (112.18 ticks)
Sequential b&c:
  Real time             =    0.00 sec. (0.00 ticks)
                          ------------
Total (root+branch&cut) =    0.08 sec. (112.18 ticks)
Primal:	308
Dual:	308
Status:	Optimal
Time:	0.498981
Sequence:
	9
	6
	9
	9
	9
	9
	9
	9
	9
	9
	6
	9
	5
	9
	9
	9
	6
	9
	9
	9
	9
	6
	9
	9
	9
	9
	9
	9
	9
	6
	9
	9
	9
	9
	9
	9
	9
	9
	6
	9
	9
	9
	6
	9
	9
	9
	9
	9
	6
	9
	9
	9
	6
	9
	9
	9
	9
	6
	9
	9
	5
	9
	6
	9
	9
	9
	9
	9
	9
	6
	9
	9
	9
	9
	9
	6
	9
	9
	9
	9
	9
	9
	9
	6
	9
	9
	9
	9
	9
	9
	6
	9
	9
	9
	6
	9
	9
	9
	9
	9
	9
	6
	4
	9
	5
	5
	2
	1
	5
	9
	0
	4
	9
	5
	6
	10
	4
	4
	9
	6
	0
	3
	9
	4
	4
	1
	6
	0
	4
	5
	10
	0
	4
	6
	9
	4
	5
	9
	0
	5
	4
	2
	1
	4
	1
	5
	6
	2
	5
	9
	6
	5
	0
	9
	4
	6
	9
	0
	10
	6
	4
	0
	4
	6
	9
	0
	5
	6
	9
	1
	5
	0
	4
	6
	9
	9
	5
	0
	6
	4
	3
	0
	9
	6
	4
	1
	9
	6
	9
	4
	9
	6
	9
	5
	0
	4
	5
	9
	6
	5
	9
	0
	6
	1
	9
	9
	6
	4
	9
	5
	9
	6
	5
	0
	9
	9
	6
	9
	9
	3
	2
	6
	5
	9
	5
	6
	9
	5
	5
	9
	6
	5
	0
	4
	9
	6
	5
	9
	0
	9
	6
	4
	9
	5
	2
	10
	5
	6
	9
	1
	4
	6
	0
	9
	4
	6
	9
	0
	5
	9
	6
	9
	4
	2
	4
	6
	0
	4
	4
	9
	9
	4
	6
	9
	4
	0
	6
	1
	9
	5
	6
	9
	9
	5
	5
	0
	9
	9
	6
	1
	2
	5
	6
	2
	5
	5
	0
	9
	6
	4
	9
	4
	0
	9
	6
	3
	4
	5
